files/upTests/_tuples_of_matrix/manyWithTuples/0001.eprime.solution
language ESSENCE' 1.0
$ minion Nodes: 1
$ minion TotalTime: 0.000459
$ Savile Row TotalTime: 0.182
letting pain_tuple1_tuple3_tuple2 be [6]
letting pain_tuple1_tuple2_tuple2 be [9]
letting pain_tuple1_tuple3_tuple1 be [5]
letting pain_tuple1_tuple2_tuple3 be [3]
letting pain_tuple1_tuple3_tuple4 be [8]
letting pain_tuple1_tuple3_tuple3 be [7]
letting pain_tuple1_tuple2_tuple1 be [1]
letting pain_tuple1_tuple4 be [14]
letting pain_tuple1_tuple2_tuple4 be [4]
letting pain_tuple1_tuple1 be [2]
